nNurses = 80;
nHours = 40;
minHours = 9;
maxHours = 9;
maxConsec = 9;
maxPresence = 22;
demand = [6, 7, 9, 9, 6, 7, 9, 10, 12, 15, 14, 11, 13, 12, 11, 11, 6, 8, 8, 11, 15, 10, 11, 10, 10, 13, 12, 14, 10, 6, 10, 6, 8, 13, 17, 14, 13, 9, 12, 13];
